c read Graph
c width = 13
c time = 888 ms
c width = 3
c time = 1175 ms
c width = 3
c time = 4084 ms
s td 30 4 33
b 1 1 2 12
b 2 2 3 12 13
b 3 9 10 21 22
b 4 3 12 13 24
b 5 3 13 14 24
b 6 9 21 22 32
b 7 3 14 24 25
b 8 3 14 25 26
b 9 9 21 31 32
b 10 3 4 14 26
b 11 4 14 15 26
b 12 4 15 16 26
b 13 9 20 21 31
b 14 4 16 26 27
b 15 4 16 27 28
b 16 9 20 30 31
b 17 4 5 16 28
b 18 5 16 17 28
b 19 5 6 17 28
b 20 9 19 20 30
b 21 8 9 19 30
b 22 6 7 17 28
b 23 7 17 18 28
b 24 7 18 28 29
b 25 7 8 18 29
b 26 8 18 19 29
b 27 8 19 29 30
b 28 22 32 33
b 29 12 23 24
b 30 10 11 22
1 2
2 4
3 30
3 6
4 29
4 5
5 7
6 28
6 9
7 8
8 10
9 13
10 11
11 12
12 14
13 16
14 15
15 17
16 20
17 18
18 19
19 22
20 21
21 27
22 23
23 24
24 25
25 26
26 27
